data/solutions/recovery/wellformed/moderate/binding/wellformed_moderate_instance89/9.sol
Elapsed time: 0.02
Upper bound: 7825.0
Planning weighted value: 430802.0
C[0]=7825.0
C[1]=7535.0
C[2]=7219.0
C[3]=7128.0
C[4]=6840.0
C[5]=6816.0
y[0]=5
y[1]=2
y[2]=4
y[3]=1
y[4]=3
y[5]=2
y[6]=3
y[7]=1
y[8]=3
y[9]=1
y[10]=4
y[11]=3
y[12]=0
y[13]=5
y[14]=3
y[15]=1
y[16]=1
y[17]=3
y[18]=0
y[19]=2
y[20]=2
y[21]=1
y[22]=5
y[23]=5
y[24]=4
y[25]=4
y[26]=3
y[27]=2
y[28]=0
y[29]=3
y[30]=0
y[31]=4
y[32]=5
y[33]=2
y[34]=0
y[35]=2
y[36]=5
y[37]=5
y[38]=4
y[39]=5
y[40]=1
y[41]=0
